\ LP format - for model browsing. Use MPS format to capture full model detail.
Minimize
  x0 + x1 + x2 + x3 + x4 + x5 + x6 + x7 + x8 + x9 + x10 + x11 + x12 + x13
   + x14 + x15 + x16 + x17 + x18 + x19 + x20 + x21 + x22 + x23 + x24 + x25
   + x26 + x27 + x28 + x29 + x30 + x31 + x32 + x33 + x34 + x35 + x36 + x37
   + x38 + x39 + x40 + x41 + x42 + x43 + x44 + x45 + x46 + x47 + x48 + x49
   + x50 + x51 + x52 + x53 + x54 + x55 + x56 + x57 + x58 + x59 + x60 + x61
   + x62 + x63 + x64 + x65 + x66 + x67 + x68 + x69 + x70 + x71 + x72 + x73
   + x74 + x75 + x76 + x77 + x78 + x79 + x80 + x81 + x82 + x83 + x84 + x85
   + x86 + x87 + x88 + x89 + x90 + x91 + x92 + x93 + x94 + x95 + x96 + x97
   + x98 + x99 + x100 + x101 + x102 + x103 + x104 + x105 + x106 + x107
   + x108 + x109 + x110 + x111 + x112 + x113 + x114 + x115 + x116 + x117
   + x118 + x119 + x120 + x121 + x122 + x123 + x124 + x125 + x126 + x127
   + x128 + x129 + x130 + x131 + x132 + x133 + x134 + x135 + x136 + x137
   + x138 + x139 + x140 + x141 + x142 + x143 + x144 + x145 + x146 + x147
   + x148 + x149 + x150 + x151 + x152 + x153 + x154 + x155 + x156 + x157
   + x158 + x159 + x160 + x161 + x162 + x163 + x164 + x165 + x166 + x167
   + x168 + x169 + x170 + x171 + x172 + x173 + x174 + x175 + x176 + x177
   + x178 + x179 + x180 + x181 + x182 + x183 + x184 + x185 + x186 + x187
   + x188 + x189 + x190 + x191 + x192 + x193 + x194 + x195 + x196 + x197
   + x198 + x199 + x200 + x201 + x202 + x203 + x204 + x205 + x206 + x207
   + x208 + x209 + x210 + x211 + x212 + x213 + x214 + x215 + x216 + x217
   + x218 + x219 + x220 + x221 + x222 + x223 + x224 + x225 + x226 + x227
   + x228 + x229 + x230 + x231 + x232 + x233 + x234 + x235 + x236 + x237
   + x238 + x239 + x240 + x241 + x242 + x243 + x244 + x245 + x246 + x247
   + x248 + x249 + x250 + x251 + x252 + x253 + x254 + x255 + x256 + x257
   + x258 + x259 + x260 + x261 + x262 + x263 + x264 + x265 + x266 + x267
   + x268 + x269 + x270 + x271 + x272 + x273 + x274 + x275 + x276 + x277
   + x278 + x279 + x280 + x281 + x282 + x283 + x284 + x285 + x286 + x287
   + x288 + x289 + x290 + x291 + x292 + x293 + x294 + x295 + x296 + x297
   + x298 + x299 + x300 + x301 + x302 + x303 + x304 + x305 + x306 + x307
   + x308 + x309 + x310 + x311 + x312 + x313 + x314 + x315 + x316 + x317
   + x318 + x319 + x320 + x321 + x322 + x323 + x324 + x325 + x326 + x327
   + x328 + x329 + x330 + x331 + x332 + x333 + x334 + x335 + x336 + x337
   + x338 + x339 + x340 + x341 + x342 + x343 + x344 + x345 + x346 + x347
   + x348 + x349 + x350 + x351 + x352 + x353 + x354 + x355 + x356 + x357
   + x358 + x359 + x360 + x361 + x362 + x363 + x364 + x365 + x366 + x367
   + x368 + x369 + x370 + x371 + x372 + x373 + x374 + x375 + x376 + x377
   + x378
Subject To
 R0: x0 = 1
 qc0: [ x0 * x52 + x1 * x53 + x2 * x54 + x3 * x55 + x4 * x56 + x5 * x57
   + x6 * x58 + x7 * x59 + x8 * x60 + x9 * x61 + x10 * x62 + x11 * x63
   + x12 * x64 + x13 * x65 + x14 * x66 + x15 * x67 + x16 * x68 + x17 * x69
   + x18 * x70 + x19 * x71 + x20 * x72 + x21 * x73 + x22 * x74 + x23 * x75
   + x24 * x76 + x25 * x77 + x26 * x78 + x27 * x79 + x28 * x80 + x29 * x81
   + x30 * x82 + x31 * x83 + x32 * x84 + x33 * x85 + x34 * x86 + x35 * x87
   + x36 * x88 + x37 * x89 + x38 * x90 + x39 * x91 + x40 * x92 + x41 * x93
   + x42 * x94 + x43 * x95 + x44 * x96 + x45 * x97 + x46 * x98 + x47 * x99
   + x48 * x100 + x49 * x101 + x50 * x102 + x51 * x103 + x52 * x104
   + x53 * x105 + x54 * x106 + x55 * x107 + x56 * x108 + x57 * x109
   + x58 * x110 + x59 * x111 + x60 * x112 + x61 * x113 + x62 * x114
   + x63 * x115 + x64 * x116 + x65 * x117 + x66 * x118 + x67 * x119
   + x68 * x120 + x69 * x121 + x70 * x122 + x71 * x123 + x72 * x124
   + x73 * x125 + x74 * x126 + x75 * x127 + x76 * x128 + x77 * x129
   + x78 * x130 + x79 * x131 + x80 * x132 + x81 * x133 + x82 * x134
   + x83 * x135 + x84 * x136 + x85 * x137 + x86 * x138 + x87 * x139
   + x88 * x140 + x89 * x141 + x90 * x142 + x91 * x143 + x92 * x144
   + x93 * x145 + x94 * x146 + x95 * x147 + x96 * x148 + x97 * x149
   + x98 * x150 + x99 * x151 + x100 * x152 + x101 * x153 + x102 * x154
   + x103 * x155 + x104 * x156 + x105 * x157 + x106 * x158 + x107 * x159
   + x108 * x160 + x109 * x161 + x110 * x162 + x111 * x163 + x112 * x164
   + x113 * x165 + x114 * x166 + x115 * x167 + x116 * x168 + x117 * x169
   + x118 * x170 + x119 * x171 + x120 * x172 + x121 * x173 + x122 * x174
   + x123 * x175 + x124 * x176 + x125 * x177 + x126 * x178 + x127 * x179
   + x128 * x180 + x129 * x181 + x130 * x182 + x131 * x183 + x132 * x184
   + x133 * x185 + x134 * x186 + x135 * x187 + x136 * x188 + x137 * x189
   + x138 * x190 + x139 * x191 + x140 * x192 + x141 * x193 + x142 * x194
   + x143 * x195 + x144 * x196 + x145 * x197 + x146 * x198 + x147 * x199
   + x148 * x200 + x149 * x201 + x150 * x202 + x151 * x203 + x152 * x204
   + x153 * x205 + x154 * x206 + x155 * x207 + x156 * x208 + x157 * x209
   + x158 * x210 + x159 * x211 + x160 * x212 + x161 * x213 + x162 * x214
   + x163 * x215 + x164 * x216 + x165 * x217 + x166 * x218 + x167 * x219
   + x168 * x220 + x169 * x221 + x170 * x222 + x171 * x223 + x172 * x224
   + x173 * x225 + x174 * x226 + x175 * x227 + x176 * x228 + x177 * x229
   + x178 * x230 + x179 * x231 + x180 * x232 + x181 * x233 + x182 * x234
   + x183 * x235 + x184 * x236 + x185 * x237 + x186 * x238 + x187 * x239
   + x188 * x240 + x189 * x241 + x190 * x242 + x191 * x243 + x192 * x244
   + x193 * x245 + x194 * x246 + x195 * x247 + x196 * x248 + x197 * x249
   + x198 * x250 + x199 * x251 + x200 * x252 + x201 * x253 + x202 * x254
   + x203 * x255 + x204 * x256 + x205 * x257 + x206 * x258 + x207 * x259
   + x208 * x260 + x209 * x261 + x210 * x262 + x211 * x263 + x212 * x264
   + x213 * x265 + x214 * x266 + x215 * x267 + x216 * x268 + x217 * x269
   + x218 * x270 + x219 * x271 + x220 * x272 + x221 * x273 + x222 * x274
   + x223 * x275 + x224 * x276 + x225 * x277 + x226 * x278 + x227 * x279
   + x228 * x280 + x229 * x281 + x230 * x282 + x231 * x283 + x232 * x284
   + x233 * x285 + x234 * x286 + x235 * x287 + x236 * x288 + x237 * x289
   + x238 * x290 + x239 * x291 + x240 * x292 + x241 * x293 + x242 * x294
   + x243 * x295 + x244 * x296 + x245 * x297 + x246 * x298 + x247 * x299
   + x248 * x300 + x249 * x301 + x250 * x302 + x251 * x303 + x252 * x304
   + x253 * x305 + x254 * x306 + x255 * x307 + x256 * x308 + x257 * x309
   + x258 * x310 + x259 * x311 + x260 * x312 + x261 * x313 + x262 * x314
   + x263 * x315 + x264 * x316 + x265 * x317 + x266 * x318 + x267 * x319
   + x268 * x320 + x269 * x321 + x270 * x322 + x271 * x323 + x272 * x324
   + x273 * x325 + x274 * x326 + x275 * x327 + x276 * x328 + x277 * x329
   + x278 * x330 + x279 * x331 + x280 * x332 + x281 * x333 + x282 * x334
   + x283 * x335 + x284 * x336 + x285 * x337 + x286 * x338 + x287 * x339
   + x288 * x340 + x289 * x341 + x290 * x342 + x291 * x343 + x292 * x344
   + x293 * x345 + x294 * x346 + x295 * x347 + x296 * x348 + x297 * x349
   + x298 * x350 + x299 * x351 + x300 * x352 + x301 * x353 + x302 * x354
   + x303 * x355 + x304 * x356 + x305 * x357 + x306 * x358 + x307 * x359
   + x308 * x360 + x309 * x361 + x310 * x362 + x311 * x363 + x312 * x364
   + x313 * x365 + x314 * x366 + x315 * x367 + x316 * x368 + x317 * x369
   + x318 * x370 + x319 * x371 + x320 * x372 + x321 * x373 + x322 * x374
   + x323 * x375 + x324 * x376 + x325 * x377 + x326 * x378 ] >= 1
 qc1: [ x0 * x54 + x1 * x55 + x2 * x56 + x3 * x57 + x4 * x58 + x5 * x59
   + x6 * x60 + x7 * x61 + x8 * x62 + x9 * x63 + x10 * x64 + x11 * x65
   + x12 * x66 + x13 * x67 + x14 * x68 + x15 * x69 + x16 * x70 + x17 * x71
   + x18 * x72 + x19 * x73 + x20 * x74 + x21 * x75 + x22 * x76 + x23 * x77
   + x24 * x78 + x25 * x79 + x26 * x80 + x27 * x81 + x28 * x82 + x29 * x83
   + x30 * x84 + x31 * x85 + x32 * x86 + x33 * x87 + x34 * x88 + x35 * x89
   + x36 * x90 + x37 * x91 + x38 * x92 + x39 * x93 + x40 * x94 + x41 * x95
   + x42 * x96 + x43 * x97 + x44 * x98 + x45 * x99 + x46 * x100
   + x47 * x101 + x48 * x102 + x49 * x103 + x50 * x104 + x51 * x105
   + x52 * x106 + x53 * x107 + x54 * x108 + x55 * x109 + x56 * x110
   + x57 * x111 + x58 * x112 + x59 * x113 + x60 * x114 + x61 * x115
   + x62 * x116 + x63 * x117 + x64 * x118 + x65 * x119 + x66 * x120
   + x67 * x121 + x68 * x122 + x69 * x123 + x70 * x124 + x71 * x125
   + x72 * x126 + x73 * x127 + x74 * x128 + x75 * x129 + x76 * x130
   + x77 * x131 + x78 * x132 + x79 * x133 + x80 * x134 + x81 * x135
   + x82 * x136 + x83 * x137 + x84 * x138 + x85 * x139 + x86 * x140
   + x87 * x141 + x88 * x142 + x89 * x143 + x90 * x144 + x91 * x145
   + x92 * x146 + x93 * x147 + x94 * x148 + x95 * x149 + x96 * x150
   + x97 * x151 + x98 * x152 + x99 * x153 + x100 * x154 + x101 * x155
   + x102 * x156 + x103 * x157 + x104 * x158 + x105 * x159 + x106 * x160
   + x107 * x161 + x108 * x162 + x109 * x163 + x110 * x164 + x111 * x165
   + x112 * x166 + x113 * x167 + x114 * x168 + x115 * x169 + x116 * x170
   + x117 * x171 + x118 * x172 + x119 * x173 + x120 * x174 + x121 * x175
   + x122 * x176 + x123 * x177 + x124 * x178 + x125 * x179 + x126 * x180
   + x127 * x181 + x128 * x182 + x129 * x183 + x130 * x184 + x131 * x185
   + x132 * x186 + x133 * x187 + x134 * x188 + x135 * x189 + x136 * x190
   + x137 * x191 + x138 * x192 + x139 * x193 + x140 * x194 + x141 * x195
   + x142 * x196 + x143 * x197 + x144 * x198 + x145 * x199 + x146 * x200
   + x147 * x201 + x148 * x202 + x149 * x203 + x150 * x204 + x151 * x205
   + x152 * x206 + x153 * x207 + x154 * x208 + x155 * x209 + x156 * x210
   + x157 * x211 + x158 * x212 + x159 * x213 + x160 * x214 + x161 * x215
   + x162 * x216 + x163 * x217 + x164 * x218 + x165 * x219 + x166 * x220
   + x167 * x221 + x168 * x222 + x169 * x223 + x170 * x224 + x171 * x225
   + x172 * x226 + x173 * x227 + x174 * x228 + x175 * x229 + x176 * x230
   + x177 * x231 + x178 * x232 + x179 * x233 + x180 * x234 + x181 * x235
   + x182 * x236 + x183 * x237 + x184 * x238 + x185 * x239 + x186 * x240
   + x187 * x241 + x188 * x242 + x189 * x243 + x190 * x244 + x191 * x245
   + x192 * x246 + x193 * x247 + x194 * x248 + x195 * x249 + x196 * x250
   + x197 * x251 + x198 * x252 + x199 * x253 + x200 * x254 + x201 * x255
   + x202 * x256 + x203 * x257 + x204 * x258 + x205 * x259 + x206 * x260
   + x207 * x261 + x208 * x262 + x209 * x263 + x210 * x264 + x211 * x265
   + x212 * x266 + x213 * x267 + x214 * x268 + x215 * x269 + x216 * x270
   + x217 * x271 + x218 * x272 + x219 * x273 + x220 * x274 + x221 * x275
   + x222 * x276 + x223 * x277 + x224 * x278 + x225 * x279 + x226 * x280
   + x227 * x281 + x228 * x282 + x229 * x283 + x230 * x284 + x231 * x285
   + x232 * x286 + x233 * x287 + x234 * x288 + x235 * x289 + x236 * x290
   + x237 * x291 + x238 * x292 + x239 * x293 + x240 * x294 + x241 * x295
   + x242 * x296 + x243 * x297 + x244 * x298 + x245 * x299 + x246 * x300
   + x247 * x301 + x248 * x302 + x249 * x303 + x250 * x304 + x251 * x305
   + x252 * x306 + x253 * x307 + x254 * x308 + x255 * x309 + x256 * x310
   + x257 * x311 + x258 * x312 + x259 * x313 + x260 * x314 + x261 * x315
   + x262 * x316 + x263 * x317 + x264 * x318 + x265 * x319 + x266 * x320
   + x267 * x321 + x268 * x322 + x269 * x323 + x270 * x324 + x271 * x325
   + x272 * x326 + x273 * x327 + x274 * x328 + x275 * x329 + x276 * x330
   + x277 * x331 + x278 * x332 + x279 * x333 + x280 * x334 + x281 * x335
   + x282 * x336 + x283 * x337 + x284 * x338 + x285 * x339 + x286 * x340
   + x287 * x341 + x288 * x342 + x289 * x343 + x290 * x344 + x291 * x345
   + x292 * x346 + x293 * x347 + x294 * x348 + x295 * x349 + x296 * x350
   + x297 * x351 + x298 * x352 + x299 * x353 + x300 * x354 + x301 * x355
   + x302 * x356 + x303 * x357 + x304 * x358 + x305 * x359 + x306 * x360
   + x307 * x361 + x308 * x362 + x309 * x363 + x310 * x364 + x311 * x365
   + x312 * x366 + x313 * x367 + x314 * x368 + x315 * x369 + x316 * x370
   + x317 * x371 + x318 * x372 + x319 * x373 + x320 * x374 + x321 * x375
   + x322 * x376 + x323 * x377 + x324 * x378 ] >= 1
 qc2: [ x0 * x85 + x1 * x86 + x2 * x87 + x3 * x88 + x4 * x89 + x5 * x90
   + x6 * x91 + x7 * x92 + x8 * x93 + x9 * x94 + x10 * x95 + x11 * x96
   + x12 * x97 + x13 * x98 + x14 * x99 + x15 * x100 + x16 * x101
   + x17 * x102 + x18 * x103 + x19 * x104 + x20 * x105 + x21 * x106
   + x22 * x107 + x23 * x108 + x24 * x109 + x25 * x110 + x26 * x111
   + x27 * x112 + x28 * x113 + x29 * x114 + x30 * x115 + x31 * x116
   + x32 * x117 + x33 * x118 + x34 * x119 + x35 * x120 + x36 * x121
   + x37 * x122 + x38 * x123 + x39 * x124 + x40 * x125 + x41 * x126
   + x42 * x127 + x43 * x128 + x44 * x129 + x45 * x130 + x46 * x131
   + x47 * x132 + x48 * x133 + x49 * x134 + x50 * x135 + x51 * x136
   + x52 * x137 + x53 * x138 + x54 * x139 + x55 * x140 + x56 * x141
   + x57 * x142 + x58 * x143 + x59 * x144 + x60 * x145 + x61 * x146
   + x62 * x147 + x63 * x148 + x64 * x149 + x65 * x150 + x66 * x151
   + x67 * x152 + x68 * x153 + x69 * x154 + x70 * x155 + x71 * x156
   + x72 * x157 + x73 * x158 + x74 * x159 + x75 * x160 + x76 * x161
   + x77 * x162 + x78 * x163 + x79 * x164 + x80 * x165 + x81 * x166
   + x82 * x167 + x83 * x168 + x84 * x169 + x85 * x170 + x86 * x171
   + x87 * x172 + x88 * x173 + x89 * x174 + x90 * x175 + x91 * x176
   + x92 * x177 + x93 * x178 + x94 * x179 + x95 * x180 + x96 * x181
   + x97 * x182 + x98 * x183 + x99 * x184 + x100 * x185 + x101 * x186
   + x102 * x187 + x103 * x188 + x104 * x189 + x105 * x190 + x106 * x191
   + x107 * x192 + x108 * x193 + x109 * x194 + x110 * x195 + x111 * x196
   + x112 * x197 + x113 * x198 + x114 * x199 + x115 * x200 + x116 * x201
   + x117 * x202 + x118 * x203 + x119 * x204 + x120 * x205 + x121 * x206
   + x122 * x207 + x123 * x208 + x124 * x209 + x125 * x210 + x126 * x211
   + x127 * x212 + x128 * x213 + x129 * x214 + x130 * x215 + x131 * x216
   + x132 * x217 + x133 * x218 + x134 * x219 + x135 * x220 + x136 * x221
   + x137 * x222 + x138 * x223 + x139 * x224 + x140 * x225 + x141 * x226
   + x142 * x227 + x143 * x228 + x144 * x229 + x145 * x230 + x146 * x231
   + x147 * x232 + x148 * x233 + x149 * x234 + x150 * x235 + x151 * x236
   + x152 * x237 + x153 * x238 + x154 * x239 + x155 * x240 + x156 * x241
   + x157 * x242 + x158 * x243 + x159 * x244 + x160 * x245 + x161 * x246
   + x162 * x247 + x163 * x248 + x164 * x249 + x165 * x250 + x166 * x251
   + x167 * x252 + x168 * x253 + x169 * x254 + x170 * x255 + x171 * x256
   + x172 * x257 + x173 * x258 + x174 * x259 + x175 * x260 + x176 * x261
   + x177 * x262 + x178 * x263 + x179 * x264 + x180 * x265 + x181 * x266
   + x182 * x267 + x183 * x268 + x184 * x269 + x185 * x270 + x186 * x271
   + x187 * x272 + x188 * x273 + x189 * x274 + x190 * x275 + x191 * x276
   + x192 * x277 + x193 * x278 + x194 * x279 + x195 * x280 + x196 * x281
   + x197 * x282 + x198 * x283 + x199 * x284 + x200 * x285 + x201 * x286
   + x202 * x287 + x203 * x288 + x204 * x289 + x205 * x290 + x206 * x291
   + x207 * x292 + x208 * x293 + x209 * x294 + x210 * x295 + x211 * x296
   + x212 * x297 + x213 * x298 + x214 * x299 + x215 * x300 + x216 * x301
   + x217 * x302 + x218 * x303 + x219 * x304 + x220 * x305 + x221 * x306
   + x222 * x307 + x223 * x308 + x224 * x309 + x225 * x310 + x226 * x311
   + x227 * x312 + x228 * x313 + x229 * x314 + x230 * x315 + x231 * x316
   + x232 * x317 + x233 * x318 + x234 * x319 + x235 * x320 + x236 * x321
   + x237 * x322 + x238 * x323 + x239 * x324 + x240 * x325 + x241 * x326
   + x242 * x327 + x243 * x328 + x244 * x329 + x245 * x330 + x246 * x331
   + x247 * x332 + x248 * x333 + x249 * x334 + x250 * x335 + x251 * x336
   + x252 * x337 + x253 * x338 + x254 * x339 + x255 * x340 + x256 * x341
   + x257 * x342 + x258 * x343 + x259 * x344 + x260 * x345 + x261 * x346
   + x262 * x347 + x263 * x348 + x264 * x349 + x265 * x350 + x266 * x351
   + x267 * x352 + x268 * x353 + x269 * x354 + x270 * x355 + x271 * x356
   + x272 * x357 + x273 * x358 + x274 * x359 + x275 * x360 + x276 * x361
   + x277 * x362 + x278 * x363 + x279 * x364 + x280 * x365 + x281 * x366
   + x282 * x367 + x283 * x368 + x284 * x369 + x285 * x370 + x286 * x371
   + x287 * x372 + x288 * x373 + x289 * x374 + x290 * x375 + x291 * x376
   + x292 * x377 + x293 * x378 ] >= 1
 qc3: [ x0 * x88 + x1 * x89 + x2 * x90 + x3 * x91 + x4 * x92 + x5 * x93
   + x6 * x94 + x7 * x95 + x8 * x96 + x9 * x97 + x10 * x98 + x11 * x99
   + x12 * x100 + x13 * x101 + x14 * x102 + x15 * x103 + x16 * x104
   + x17 * x105 + x18 * x106 + x19 * x107 + x20 * x108 + x21 * x109
   + x22 * x110 + x23 * x111 + x24 * x112 + x25 * x113 + x26 * x114
   + x27 * x115 + x28 * x116 + x29 * x117 + x30 * x118 + x31 * x119
   + x32 * x120 + x33 * x121 + x34 * x122 + x35 * x123 + x36 * x124
   + x37 * x125 + x38 * x126 + x39 * x127 + x40 * x128 + x41 * x129
   + x42 * x130 + x43 * x131 + x44 * x132 + x45 * x133 + x46 * x134
   + x47 * x135 + x48 * x136 + x49 * x137 + x50 * x138 + x51 * x139
   + x52 * x140 + x53 * x141 + x54 * x142 + x55 * x143 + x56 * x144
   + x57 * x145 + x58 * x146 + x59 * x147 + x60 * x148 + x61 * x149
   + x62 * x150 + x63 * x151 + x64 * x152 + x65 * x153 + x66 * x154
   + x67 * x155 + x68 * x156 + x69 * x157 + x70 * x158 + x71 * x159
   + x72 * x160 + x73 * x161 + x74 * x162 + x75 * x163 + x76 * x164
   + x77 * x165 + x78 * x166 + x79 * x167 + x80 * x168 + x81 * x169
   + x82 * x170 + x83 * x171 + x84 * x172 + x85 * x173 + x86 * x174
   + x87 * x175 + x88 * x176 + x89 * x177 + x90 * x178 + x91 * x179
   + x92 * x180 + x93 * x181 + x94 * x182 + x95 * x183 + x96 * x184
   + x97 * x185 + x98 * x186 + x99 * x187 + x100 * x188 + x101 * x189
   + x102 * x190 + x103 * x191 + x104 * x192 + x105 * x193 + x106 * x194
   + x107 * x195 + x108 * x196 + x109 * x197 + x110 * x198 + x111 * x199
   + x112 * x200 + x113 * x201 + x114 * x202 + x115 * x203 + x116 * x204
   + x117 * x205 + x118 * x206 + x119 * x207 + x120 * x208 + x121 * x209
   + x122 * x210 + x123 * x211 + x124 * x212 + x125 * x213 + x126 * x214
   + x127 * x215 + x128 * x216 + x129 * x217 + x130 * x218 + x131 * x219
   + x132 * x220 + x133 * x221 + x134 * x222 + x135 * x223 + x136 * x224
   + x137 * x225 + x138 * x226 + x139 * x227 + x140 * x228 + x141 * x229
   + x142 * x230 + x143 * x231 + x144 * x232 + x145 * x233 + x146 * x234
   + x147 * x235 + x148 * x236 + x149 * x237 + x150 * x238 + x151 * x239
   + x152 * x240 + x153 * x241 + x154 * x242 + x155 * x243 + x156 * x244
   + x157 * x245 + x158 * x246 + x159 * x247 + x160 * x248 + x161 * x249
   + x162 * x250 + x163 * x251 + x164 * x252 + x165 * x253 + x166 * x254
   + x167 * x255 + x168 * x256 + x169 * x257 + x170 * x258 + x171 * x259
   + x172 * x260 + x173 * x261 + x174 * x262 + x175 * x263 + x176 * x264
   + x177 * x265 + x178 * x266 + x179 * x267 + x180 * x268 + x181 * x269
   + x182 * x270 + x183 * x271 + x184 * x272 + x185 * x273 + x186 * x274
   + x187 * x275 + x188 * x276 + x189 * x277 + x190 * x278 + x191 * x279
   + x192 * x280 + x193 * x281 + x194 * x282 + x195 * x283 + x196 * x284
   + x197 * x285 + x198 * x286 + x199 * x287 + x200 * x288 + x201 * x289
   + x202 * x290 + x203 * x291 + x204 * x292 + x205 * x293 + x206 * x294
   + x207 * x295 + x208 * x296 + x209 * x297 + x210 * x298 + x211 * x299
   + x212 * x300 + x213 * x301 + x214 * x302 + x215 * x303 + x216 * x304
   + x217 * x305 + x218 * x306 + x219 * x307 + x220 * x308 + x221 * x309
   + x222 * x310 + x223 * x311 + x224 * x312 + x225 * x313 + x226 * x314
   + x227 * x315 + x228 * x316 + x229 * x317 + x230 * x318 + x231 * x319
   + x232 * x320 + x233 * x321 + x234 * x322 + x235 * x323 + x236 * x324
   + x237 * x325 + x238 * x326 + x239 * x327 + x240 * x328 + x241 * x329
   + x242 * x330 + x243 * x331 + x244 * x332 + x245 * x333 + x246 * x334
   + x247 * x335 + x248 * x336 + x249 * x337 + x250 * x338 + x251 * x339
   + x252 * x340 + x253 * x341 + x254 * x342 + x255 * x343 + x256 * x344
   + x257 * x345 + x258 * x346 + x259 * x347 + x260 * x348 + x261 * x349
   + x262 * x350 + x263 * x351 + x264 * x352 + x265 * x353 + x266 * x354
   + x267 * x355 + x268 * x356 + x269 * x357 + x270 * x358 + x271 * x359
   + x272 * x360 + x273 * x361 + x274 * x362 + x275 * x363 + x276 * x364
   + x277 * x365 + x278 * x366 + x279 * x367 + x280 * x368 + x281 * x369
   + x282 * x370 + x283 * x371 + x284 * x372 + x285 * x373 + x286 * x374
   + x287 * x375 + x288 * x376 + x289 * x377 + x290 * x378 ] >= 1
 qc4: [ x0 * x99 + x1 * x100 + x2 * x101 + x3 * x102 + x4 * x103
   + x5 * x104 + x6 * x105 + x7 * x106 + x8 * x107 + x9 * x108 + x10 * x109
   + x11 * x110 + x12 * x111 + x13 * x112 + x14 * x113 + x15 * x114
   + x16 * x115 + x17 * x116 + x18 * x117 + x19 * x118 + x20 * x119
   + x21 * x120 + x22 * x121 + x23 * x122 + x24 * x123 + x25 * x124
   + x26 * x125 + x27 * x126 + x28 * x127 + x29 * x128 + x30 * x129
   + x31 * x130 + x32 * x131 + x33 * x132 + x34 * x133 + x35 * x134
   + x36 * x135 + x37 * x136 + x38 * x137 + x39 * x138 + x40 * x139
   + x41 * x140 + x42 * x141 + x43 * x142 + x44 * x143 + x45 * x144
   + x46 * x145 + x47 * x146 + x48 * x147 + x49 * x148 + x50 * x149
   + x51 * x150 + x52 * x151 + x53 * x152 + x54 * x153 + x55 * x154
   + x56 * x155 + x57 * x156 + x58 * x157 + x59 * x158 + x60 * x159
   + x61 * x160 + x62 * x161 + x63 * x162 + x64 * x163 + x65 * x164
   + x66 * x165 + x67 * x166 + x68 * x167 + x69 * x168 + x70 * x169
   + x71 * x170 + x72 * x171 + x73 * x172 + x74 * x173 + x75 * x174
   + x76 * x175 + x77 * x176 + x78 * x177 + x79 * x178 + x80 * x179
   + x81 * x180 + x82 * x181 + x83 * x182 + x84 * x183 + x85 * x184
   + x86 * x185 + x87 * x186 + x88 * x187 + x89 * x188 + x90 * x189
   + x91 * x190 + x92 * x191 + x93 * x192 + x94 * x193 + x95 * x194
   + x96 * x195 + x97 * x196 + x98 * x197 + x99 * x198 + x100 * x199
   + x101 * x200 + x102 * x201 + x103 * x202 + x104 * x203 + x105 * x204
   + x106 * x205 + x107 * x206 + x108 * x207 + x109 * x208 + x110 * x209
   + x111 * x210 + x112 * x211 + x113 * x212 + x114 * x213 + x115 * x214
   + x116 * x215 + x117 * x216 + x118 * x217 + x119 * x218 + x120 * x219
   + x121 * x220 + x122 * x221 + x123 * x222 + x124 * x223 + x125 * x224
   + x126 * x225 + x127 * x226 + x128 * x227 + x129 * x228 + x130 * x229
   + x131 * x230 + x132 * x231 + x133 * x232 + x134 * x233 + x135 * x234
   + x136 * x235 + x137 * x236 + x138 * x237 + x139 * x238 + x140 * x239
   + x141 * x240 + x142 * x241 + x143 * x242 + x144 * x243 + x145 * x244
   + x146 * x245 + x147 * x246 + x148 * x247 + x149 * x248 + x150 * x249
   + x151 * x250 + x152 * x251 + x153 * x252 + x154 * x253 + x155 * x254
   + x156 * x255 + x157 * x256 + x158 * x257 + x159 * x258 + x160 * x259
   + x161 * x260 + x162 * x261 + x163 * x262 + x164 * x263 + x165 * x264
   + x166 * x265 + x167 * x266 + x168 * x267 + x169 * x268 + x170 * x269
   + x171 * x270 + x172 * x271 + x173 * x272 + x174 * x273 + x175 * x274
   + x176 * x275 + x177 * x276 + x178 * x277 + x179 * x278 + x180 * x279
   + x181 * x280 + x182 * x281 + x183 * x282 + x184 * x283 + x185 * x284
   + x186 * x285 + x187 * x286 + x188 * x287 + x189 * x288 + x190 * x289
   + x191 * x290 + x192 * x291 + x193 * x292 + x194 * x293 + x195 * x294
   + x196 * x295 + x197 * x296 + x198 * x297 + x199 * x298 + x200 * x299
   + x201 * x300 + x202 * x301 + x203 * x302 + x204 * x303 + x205 * x304
   + x206 * x305 + x207 * x306 + x208 * x307 + x209 * x308 + x210 * x309
   + x211 * x310 + x212 * x311 + x213 * x312 + x214 * x313 + x215 * x314
   + x216 * x315 + x217 * x316 + x218 * x317 + x219 * x318 + x220 * x319
   + x221 * x320 + x222 * x321 + x223 * x322 + x224 * x323 + x225 * x324
   + x226 * x325 + x227 * x326 + x228 * x327 + x229 * x328 + x230 * x329
   + x231 * x330 + x232 * x331 + x233 * x332 + x234 * x333 + x235 * x334
   + x236 * x335 + x237 * x336 + x238 * x337 + x239 * x338 + x240 * x339
   + x241 * x340 + x242 * x341 + x243 * x342 + x244 * x343 + x245 * x344
   + x246 * x345 + x247 * x346 + x248 * x347 + x249 * x348 + x250 * x349
   + x251 * x350 + x252 * x351 + x253 * x352 + x254 * x353 + x255 * x354
   + x256 * x355 + x257 * x356 + x258 * x357 + x259 * x358 + x260 * x359
   + x261 * x360 + x262 * x361 + x263 * x362 + x264 * x363 + x265 * x364
   + x266 * x365 + x267 * x366 + x268 * x367 + x269 * x368 + x270 * x369
   + x271 * x370 + x272 * x371 + x273 * x372 + x274 * x373 + x275 * x374
   + x276 * x375 + x277 * x376 + x278 * x377 + x279 * x378 ] >= 1
Bounds
Binaries
 x0 x1 x2 x3 x4 x5 x6 x7 x8 x9 x10 x11 x12 x13 x14 x15 x16 x17 x18 x19 x20
 x21 x22 x23 x24 x25 x26 x27 x28 x29 x30 x31 x32 x33 x34 x35 x36 x37 x38
 x39 x40 x41 x42 x43 x44 x45 x46 x47 x48 x49 x50 x51 x52 x53 x54 x55 x56
 x57 x58 x59 x60 x61 x62 x63 x64 x65 x66 x67 x68 x69 x70 x71 x72 x73 x74
 x75 x76 x77 x78 x79 x80 x81 x82 x83 x84 x85 x86 x87 x88 x89 x90 x91 x92
 x93 x94 x95 x96 x97 x98 x99 x100 x101 x102 x103 x104 x105 x106 x107 x108
 x109 x110 x111 x112 x113 x114 x115 x116 x117 x118 x119 x120 x121 x122 x123
 x124 x125 x126 x127 x128 x129 x130 x131 x132 x133 x134 x135 x136 x137 x138
 x139 x140 x141 x142 x143 x144 x145 x146 x147 x148 x149 x150 x151 x152 x153
 x154 x155 x156 x157 x158 x159 x160 x161 x162 x163 x164 x165 x166 x167 x168
 x169 x170 x171 x172 x173 x174 x175 x176 x177 x178 x179 x180 x181 x182 x183
 x184 x185 x186 x187 x188 x189 x190 x191 x192 x193 x194 x195 x196 x197 x198
 x199 x200 x201 x202 x203 x204 x205 x206 x207 x208 x209 x210 x211 x212 x213
 x214 x215 x216 x217 x218 x219 x220 x221 x222 x223 x224 x225 x226 x227 x228
 x229 x230 x231 x232 x233 x234 x235 x236 x237 x238 x239 x240 x241 x242 x243
 x244 x245 x246 x247 x248 x249 x250 x251 x252 x253 x254 x255 x256 x257 x258
 x259 x260 x261 x262 x263 x264 x265 x266 x267 x268 x269 x270 x271 x272 x273
 x274 x275 x276 x277 x278 x279 x280 x281 x282 x283 x284 x285 x286 x287 x288
 x289 x290 x291 x292 x293 x294 x295 x296 x297 x298 x299 x300 x301 x302 x303
 x304 x305 x306 x307 x308 x309 x310 x311 x312 x313 x314 x315 x316 x317 x318
 x319 x320 x321 x322 x323 x324 x325 x326 x327 x328 x329 x330 x331 x332 x333
 x334 x335 x336 x337 x338 x339 x340 x341 x342 x343 x344 x345 x346 x347 x348
 x349 x350 x351 x352 x353 x354 x355 x356 x357 x358 x359 x360 x361 x362 x363
 x364 x365 x366 x367 x368 x369 x370 x371 x372 x373 x374 x375 x376 x377 x378
End
